112 54 177 116 91 140 47 1 143 29 99 118 50 191 18 135 144 195 36 34 61 117 4 176 123 52 59 43 154 3 92 121 122 187 70 42 76 53 90 38 72 14 153 62 15 151 95 85 106 183 157 68 171 136 83 40 146 78 180 12 178 87 164 23 26 155 199 0 49 168 125 161 93 31 104 96 166 97 169 48 152 69 138 139 16 89 88 10 167 109 22 41 172 184 21 192 110 102 57 127 28 190 196 198 107 175 158 74 66 35 128 131 6 111 73 197 194 100 189 120 7 65 37 185 148 33 80 129 174 179 119 137 51 45 145 124 108 60 170 126 133 156 193 79 75 160 134 71 56 30 77 98 44 165 32 67 13 173 64 159 186 188 142 63 149 58 84 17 5 39 82 2 115 101 8 9 141 19 24 113 163 81 182 103 105 114 11 27 46 132 181 20 55 150 94 147 130 162 25 86